Traveling Salesman Problem/TSP_generados/Aleatorio1621103668_17.tsp
NAME: Aleatorio1621103668_17.tsp
COMMENT: Randomly generated scenario
TYPE: TSP
DIMENSION: 17
EDGE_WEIGHT_TYPE: ATT
NODE_COORD_SECTION
1 45.55 37.11
2 10.07 43.71
3 21.7 41.64
4 44.11 39.95
5 40.63 24.34
6 31.8 18.61
7 0.05 35.09
8 22.95 33.78
9 18.81 22.81
10 23.44 33.36
11 6.39 30.07
12 36.68 37.37
13 45.56 17.84
14 36.51 3.8
15 24.44 27.16
16 31.91 3.02
17 14.26 36.75
