Traveling Salesman Problem/TSP_generados/Aleatorio1621103668_17.opt.tour
NAME: Aleatorio1621103668_17.opt.tour
COMMENT: Optimal solution for Aleatorio1621103668_17 (163.4045358406245)
TYPE: TOUR
DIMENSION: 17
TOUR_SECTION
1 4 12 10 8 3 17 2 7 11 9 15 6 16 14 13 5
-1
EOF
